
Gurobi 8.1.1 (mac64, Python) logging started Wed Dec 18 12:27:33 2019

Academic license - for non-commercial use only
Optimize a model with 101 rows, 2500 columns and 5050 nonzeros
Variable types: 0 continuous, 2500 integer (2500 binary)
Coefficient statistics:
  Matrix range     [1e+00, 1e+00]
  Objective range  [2e+01, 3e+03]
  Bounds range     [1e+00, 1e+00]
  RHS range        [1e+00, 5e+01]
Found heuristic solution: objective 34312.032690
Presolve removed 101 rows and 2500 columns
Presolve time: 0.00s
Presolve: All rows and columns removed

Explored 0 nodes (0 simplex iterations) in 0.01 seconds
Thread count was 1 (of 8 available processors)

Solution count 2: 4830.95 34312 

Optimal solution found (tolerance 1.00e-04)
Best objective 4.830954822698e+03, best bound 4.830954822698e+03, gap 0.0000%

Gurobi 8.1.1 (mac64, Python) logging started Wed Dec 18 12:44:36 2019

Academic license - for non-commercial use only
Optimize a model with 101 rows, 2500 columns and 5050 nonzeros
Variable types: 0 continuous, 2500 integer (2500 binary)
Coefficient statistics:
  Matrix range     [1e+00, 1e+00]
  Objective range  [2e+01, 3e+03]
  Bounds range     [1e+00, 1e+00]
  RHS range        [1e+00, 5e+01]
Found heuristic solution: objective 34312.032690
Presolve removed 101 rows and 2500 columns
Presolve time: 0.00s
Presolve: All rows and columns removed

Explored 0 nodes (0 simplex iterations) in 0.01 seconds
Thread count was 1 (of 8 available processors)

Solution count 2: 4830.95 34312 

Optimal solution found (tolerance 1.00e-04)
Best objective 4.830954822698e+03, best bound 4.830954822698e+03, gap 0.0000%
